p cnf 1428 2239
-5 64 78 79 0
-27 62 68 101 0
-27 62 68 -101 0
-2 29 -53 102 0
-2 29 -53 -102 0
-31 -41 52 103 0
52 53 -103 104 0
53 -94 -98 -104 0
-5 12 17 105 0
17 -22 -105 106 0
-22 32 -106 107 0
32 -53 66 -107 0
6 49 83 -88 0
-2 22 69 108 0
69 -71 -108 109 0
-71 -76 -109 110 0
-76 80 -110 111 0
80 86 97 -111 0
23 40 -58 112 0
-58 -71 -112 113 0
-71 75 -113 114 0
75 87 -114 115 0
87 -90 96 -115 0
-8 -28 -31 -47 0
-25 -34 -54 116 0
-25 -34 -54 -116 0
13 24 -25 117 0
-25 -35 -117 118 0
-35 -38 -118 119 0
-38 41 -119 120 0
41 -49 -120 121 0
-49 -51 -95 -121 0
-8 23 45 122 0
45 -68 -72 -122 0
6 -16 -24 123 0
-24 -29 -123 124 0
-29 -61 74 -124 0
-52 -54 78 125 0
-52 -54 78 -125 0
4 -99 126 127 0
4 -99 126 -127 0
4 -99 -126 127 0
4 -99 -126 -127 0
-7 11 -63 128 0
-63 -66 -91 -128 0
3 8 67 129 0
3 8 67 -129 0
-15 -55 80 130 0
-15 -55 80 -130 0
27 61 -75 131 0
-75 -90 95 -131 0
7 8 -20 132 0
-20 -50 -132 133 0
-50 -62 79 -133 0
4 7 9 134 0
9 41 -134 135 0
41 79 -85 -135 0
13 16 17 136 0
17 -49 -136 137 0
-49 51 -137 138 0
51 -71 -138 139 0
-71 75 -90 -139 0
3 -73 93 140 0
3 -73 93 -140 0
1 -47 67 -81 0
-6 9 -58 90 0
22 -74 141 142 0
22 -74 141 -142 0
22 -74 -141 142 0
22 -74 -141 -142 0
2 37 -46 143 0
-46 49 -143 144 0
49 69 70 -144 0
1 -43 79 145 0
79 98 100 -145 0
25 -34 -46 146 0
-46 -74 -146 147 0
-74 -87 -97 -147 0
57 68 148 149 0
57 68 148 -149 0
57 68 -148 149 0
57 68 -148 -149 0
-7 16 26 150 0
26 -56 -150 151 0
-56 62 -98 -151 0
52 71 72 152 0
52 71 72 -152 0
-28 -48 59 153 0
59 -64 -153 154 0
-64 -83 -154 155 0
-83 85 -155 156 0
85 90 -96 -156 0
30 93 -95 157 0
30 93 -95 -157 0
-22 -32 75 158 0
75 77 -158 159 0
77 -92 94 -159 0
-18 -33 -100 160 0
-18 -33 -100 -160 0
12 51 -95 161 0
12 51 -95 -161 0
-77 -90 162 163 0
-77 -90 162 -163 0
-77 -90 -162 163 0
-77 -90 -162 -163 0
-9 -11 -34 164 0
-34 36 -37 -164 0
15 53 -54 165 0
-54 -68 78 -165 0
27 54 63 166 0
63 -75 -79 -166 0
48 -51 -96 167 0
48 -51 -96 -167 0
38 49 60 168 0
60 63 92 -168 0
17 -31 35 169 0
35 -46 -51 -169 0
-7 -16 -33 -38 0
56 57 -73 170 0
-73 77 -170 171 0
77 79 100 -171 0
2 3 -18 172 0
-18 -21 -172 173 0
-21 48 -173 174 0
48 85 100 -174 0
5 -20 -29 175 0
-29 -66 -91 -175 0
-1 13 -14 176 0
-14 80 83 -176 0
-5 7 8 177 0
8 -10 -177 178 0
-10 12 -178 179 0
12 13 -179 180 0
13 -15 -180 181 0
-15 -20 80 -181 0
66 -72 -84 182 0
66 -72 -84 -182 0
-58 79 -100 183 0
-58 79 -100 -183 0
-9 -18 30 184 0
30 41 -59 -184 0
-43 51 52 185 0
52 71 86 -185 0
4 -22 57 -93 0
-36 41 58 -86 0
-6 -14 42 186 0
42 79 96 -186 0
-33 39 61 187 0
61 75 -90 -187 0
90 -94 188 189 0
90 -94 188 -189 0
90 -94 -188 189 0
90 -94 -188 -189 0
-5 16 -55 -62 0
-28 -33 80 94 0
-11 -14 24 190 0
24 50 82 -190 0
63 70 79 191 0
79 81 -191 192 0
81 86 97 -192 0
-17 -26 37 193 0
37 38 -193 194 0
38 45 -194 195 0
45 -55 -195 196 0
-55 -82 -196 197 0
-82 90 99 -197 0
-9 28 -33 198 0
-33 44 -198 199 0
44 -61 -199 200 0
-61 66 -86 -200 0
-3 44 48 -77 0
-17 -30 49 201 0
49 -61 86 -201 0
-32 51 84 202 0
-32 51 84 -202 0
29 39 53 203 0
53 -59 -203 204 0
-59 62 -204 205 0
62 80 -82 -205 0
-18 38 67 206 0
-18 38 67 -206 0
1 -6 -20 207 0
-20 28 -207 208 0
28 -30 -80 -208 0
12 100 209 210 0
12 100 209 -210 0
12 100 -209 210 0
12 100 -209 -210 0
42 84 211 212 0
42 84 211 -212 0
42 84 -211 212 0
42 84 -211 -212 0
-24 35 213 214 0
-24 35 213 -214 0
-24 35 -213 214 0
-24 35 -213 -214 0
7 -22 -27 215 0
-27 -31 -215 216 0
-31 44 -216 217 0
44 49 -217 218 0
49 -62 -218 219 0
-62 66 -219 220 0
66 -88 92 -220 0
9 -16 -84 221 0
9 -16 -84 -221 0
27 -37 -48 -85 0
26 28 46 222 0
46 82 -222 223 0
82 -85 92 -223 0
12 -43 224 225 0
12 -43 224 -225 0
12 -43 -224 225 0
12 -43 -224 -225 0
1 51 54 226 0
54 -81 87 -226 0
-37 40 -50 227 0
-37 40 -50 -227 0
24 25 56 228 0
24 25 56 -228 0
23 29 44 229 0
44 59 -229 230 0
59 66 -71 -230 0
-6 -23 -83 231 0
-6 -23 -83 -231 0
15 20 29 232 0
29 -41 -232 233 0
-41 -82 85 -233 0
3 5 -26 234 0
-26 -28 -234 235 0
-28 37 -235 236 0
37 -43 -236 237 0
-43 -47 -96 -237 0
46 51 -66 -92 0
4 31 -66 -95 0
20 76 238 239 0
20 76 238 -239 0
20 76 -238 239 0
20 76 -238 -239 0
-43 -53 -76 240 0
-76 83 -89 -240 0
9 12 -19 241 0
-19 25 -241 242 0
25 77 -81 -242 0
28 42 43 -78 0
-18 -22 50 243 0
50 51 -243 244 0
51 -58 -244 245 0
-58 -63 -69 -245 0
5 7 24 246 0
24 -37 -246 247 0
-37 44 -247 248 0
44 -45 -248 249 0
-45 -82 -249 250 0
-82 91 -94 -250 0
16 -27 -59 251 0
-59 -65 -78 -251 0
44 51 -52 252 0
-52 90 -100 -252 0
-13 -33 38 253 0
38 -45 -253 254 0
-45 -60 -254 255 0
-60 -64 -255 256 0
-64 -69 -99 -256 0
36 -62 -76 257 0
-76 -80 -257 258 0
-80 -84 94 -258 0
47 54 -65 259 0
-65 -94 96 -259 0
24 -37 -64 260 0
-64 -67 80 -260 0
-5 -29 76 261 0
76 -81 -261 262 0
-81 88 89 -262 0
-7 33 -43 263 0
-43 63 -263 264 0
63 65 -264 265 0
65 78 -265 266 0
78 79 -266 267 0
79 95 99 -267 0
58 71 74 268 0
74 76 -90 -268 0
-6 -47 -70 -76 0
-5 -16 59 269 0
59 60 -269 270 0
60 -66 87 -270 0
18 56 82 -95 0
18 -39 47 271 0
47 69 75 -271 0
-11 -30 43 272 0
43 -84 -91 -272 0
75 -88 273 274 0
75 -88 273 -274 0
75 -88 -273 274 0
75 -88 -273 -274 0
-13 -16 -37 275 0
-37 -49 -275 276 0
-49 73 -276 277 0
73 74 -85 -277 0
15 47 -52 278 0
-52 59 -278 279 0
59 86 -279 280 0
86 -87 -98 -280 0
-24 27 -36 281 0
-36 -39 -281 282 0
-39 -75 -282 283 0
-75 -80 -283 284 0
-80 86 87 -284 0
18 -33 37 95 0
2 -3 -6 285 0
-6 -84 89 -285 0
-8 18 71 -93 0
5 17 41 286 0
41 -42 -286 287 0
-42 59 -287 288 0
59 60 -288 289 0
60 71 -289 290 0
71 79 -290 291 0
79 -87 -94 -291 0
5 -11 -55 292 0
-55 59 -292 293 0
59 -67 -293 294 0
-67 70 -71 -294 0
-12 -16 -28 295 0
-28 -71 87 -295 0
6 90 296 297 0
6 90 296 -297 0
6 90 -296 297 0
6 90 -296 -297 0
52 -65 82 298 0
52 -65 82 -298 0
17 -48 -57 89 0
-61 -63 69 299 0
-61 -63 69 -299 0
25 26 -35 300 0
-35 -58 -300 301 0
-58 -64 99 -301 0
19 36 46 302 0
46 47 -302 303 0
47 -50 -303 304 0
-50 -60 -304 305 0
-60 75 -86 -305 0
-28 31 -37 306 0
-37 40 95 -306 0
-33 49 89 307 0
-33 49 89 -307 0
39 -46 55 308 0
55 -62 -308 309 0
-62 86 95 -309 0
-6 24 310 311 0
-6 24 310 -311 0
-6 24 -310 311 0
-6 24 -310 -311 0
15 -19 -41 312 0
-41 44 -312 313 0
44 50 -313 314 0
50 -57 -314 315 0
-57 -60 -315 316 0
-60 81 -89 -316 0
-8 21 -26 317 0
-26 -42 -317 318 0
-42 45 -318 319 0
45 -48 -78 -319 0
-14 -23 34 320 0
34 -35 -320 321 0
-35 -53 -321 322 0
-53 -93 96 -322 0
2 41 80 92 0
45 72 -100 323 0
45 72 -100 -323 0
-9 -35 90 324 0
-9 -35 90 -324 0
-28 43 -80 325 0
-28 43 -80 -325 0
2 -8 -50 326 0
2 -8 -50 -326 0
-18 -27 47 327 0
47 -61 -73 -327 0
3 -41 -55 328 0
-55 61 -328 329 0
61 68 -329 330 0
68 95 -99 -330 0
2 27 -95 331 0
2 27 -95 -331 0
2 12 -40 332 0
-40 56 -332 333 0
56 71 -333 334 0
71 -77 -334 335 0
-77 -87 94 -335 0
19 -20 -42 66 0
-32 -43 -48 336 0
-32 -43 -48 -336 0
-26 -81 337 338 0
-26 -81 337 -338 0
-26 -81 -337 338 0
-26 -81 -337 -338 0
22 -35 -50 339 0
22 -35 -50 -339 0
-6 -24 27 340 0
27 -37 -340 341 0
-37 52 70 -341 0
-34 -46 -52 342 0
-52 75 -342 343 0
75 80 -343 344 0
80 96 98 -344 0
37 77 82 97 0
-15 29 -31 -51 0
37 -38 50 95 0
3 19 21 345 0
21 -43 -345 346 0
-43 46 -346 347 0
46 48 -69 -347 0
26 -31 59 348 0
59 70 -348 349 0
70 -72 -76 -349 0
-4 -43 47 350 0
47 -64 77 -350 0
-1 21 -31 -69 0
-20 -29 35 -89 0
-5 29 31 84 0
39 52 -72 351 0
-72 -81 -351 352 0
-81 -88 92 -352 0
-14 -43 -54 353 0
-54 -71 -353 354 0
-71 74 -89 -354 0
-32 -64 355 356 0
-32 -64 355 -356 0
-32 -64 -355 356 0
-32 -64 -355 -356 0
-1 -12 23 357 0
23 -65 -357 358 0
-65 85 -358 359 0
85 -90 93 -359 0
-11 16 -29 360 0
-29 47 -360 361 0
47 -57 -361 362 0
-57 61 -362 363 0
61 64 -363 364 0
64 -66 -75 -364 0
50 55 62 365 0
50 55 62 -365 0
56 94 366 367 0
56 94 366 -367 0
56 94 -366 367 0
56 94 -366 -367 0
-5 -22 -59 368 0
-59 69 -368 369 0
69 87 -369 370 0
87 94 95 -370 0
38 46 49 371 0
49 56 -371 372 0
56 -89 92 -372 0
1 20 -26 373 0
-26 -43 -373 374 0
-43 -45 -84 -374 0
29 -46 -51 375 0
-51 54 -375 376 0
54 68 -79 -376 0
-19 37 40 377 0
40 46 -62 -377 0
-24 -53 -79 94 0
-9 44 -46 378 0
-46 79 90 -378 0
32 53 54 95 0
34 49 61 379 0
61 83 92 -379 0
48 -51 93 380 0
48 -51 93 -380 0
16 -33 -77 -81 0
-12 -16 -28 85 0
-7 9 -10 381 0
-10 20 -381 382 0
20 -24 -382 383 0
-24 -27 -383 384 0
-27 31 -384 385 0
31 -67 89 -385 0
30 54 57 386 0
57 60 -63 -386 0
69 -80 -91 387 0
69 -80 -91 -387 0
2 6 -18 388 0
-18 20 -388 389 0
20 24 -389 390 0
24 70 -390 391 0
70 88 -93 -391 0
-3 25 29 392 0
29 41 -392 393 0
41 -58 -97 -393 0
-42 -61 78 394 0
-42 -61 78 -394 0
-22 71 81 -90 0
6 67 71 -74 0
3 6 8 395 0
8 -22 -38 -395 0
-5 -18 71 396 0
71 -86 97 -396 0
-3 -45 -50 397 0
-50 -57 -397 398 0
-57 -76 -100 -398 0
-20 82 87 -90 0
9 71 -73 399 0
-73 -76 -97 -399 0
28 52 -62 400 0
28 52 -62 -400 0
2 3 -18 401 0
-18 56 64 -401 0
70 -79 100 402 0
70 -79 100 -402 0
-14 61 -73 403 0
-73 77 -403 404 0
77 79 -404 405 0
79 -82 90 -405 0
-36 71 77 406 0
-36 71 77 -406 0
-3 -7 -11 407 0
-11 38 -62 -407 0
-40 -50 61 62 0
-14 21 26 408 0
26 -31 -408 409 0
-31 41 -409 410 0
41 -62 75 -410 0
6 15 58 411 0
58 92 -97 -411 0
5 -11 31 412 0
31 78 -412 413 0
78 -80 -413 414 0
-80 -85 -414 415 0
-85 89 95 -415 0
32 49 -67 416 0
-67 -80 -416 417 0
-80 84 -417 418 0
84 96 -99 -418 0
-17 -37 -40 -56 0
-4 -34 -43 -63 0
22 33 -34 419 0
-34 -44 -419 420 0
-44 -47 -420 421 0
-47 50 -421 422 0
50 -58 -60 -422 0
-17 32 54 423 0
54 -77 -81 -423 0
15 -25 -33 424 0
-33 -38 -424 425 0
-38 -70 83 -425 0
-8 -61 -63 87 0
-16 20 -72 426 0
-72 -75 -100 -426 0
12 17 76 427 0
12 17 76 -427 0
-24 -64 89 428 0
-24 -64 89 -428 0
4 70 429 430 0
4 70 429 -430 0
4 70 -429 430 0
4 70 -429 -430 0
36 70 -84 -99 0
16 17 -29 431 0
-29 -59 -431 432 0
-59 -71 88 -432 0
13 16 18 433 0
18 50 -433 434 0
50 88 -94 -434 0
2 22 25 435 0
25 26 -435 436 0
26 -58 -436 437 0
-58 60 -437 438 0
60 -80 -438 439 0
-80 84 -99 -439 0
12 -82 440 441 0
12 -82 440 -441 0
12 -82 -440 441 0
12 -82 -440 -441 0
10 -56 76 -90 0
-15 18 -67 99 0
31 -83 442 443 0
31 -83 442 -443 0
31 -83 -442 443 0
31 -83 -442 -443 0
7 9 11 444 0
11 46 -444 445 0
46 -55 -445 446 0
-55 58 -446 447 0
58 78 79 -447 0
5 10 -52 88 0
34 -43 -55 448 0
-55 -83 -96 -448 0
-7 66 77 449 0
-7 66 77 -449 0
-16 25 35 450 0
35 -65 71 -450 0
-5 61 80 81 0
2 -4 -37 451 0
-37 -57 -451 452 0
-57 68 -452 453 0
68 -73 -453 454 0
-73 -92 -454 455 0
-92 94 99 -455 0
-1 3 39 456 0
-1 3 39 -456 0
-9 -31 -41 457 0
-41 84 86 -457 0
-4 -27 -42 458 0
-4 -27 -42 -458 0
21 60 459 460 0
21 60 459 -460 0
21 60 -459 460 0
21 60 -459 -460 0
-86 -99 461 462 0
-86 -99 461 -462 0
-86 -99 -461 462 0
-86 -99 -461 -462 0
-18 -20 -43 463 0
-43 45 -46 -463 0
24 62 -63 464 0
-63 -77 87 -464 0
-5 36 63 465 0
63 72 -465 466 0
72 -84 -88 -466 0
1 57 -60 467 0
1 57 -60 -467 0
47 58 69 72 0
26 -40 44 468 0
44 -55 -60 -468 0
9 -16 -25 469 0
-25 -42 -47 -469 0
9 65 66 470 0
66 -82 -470 471 0
-82 86 88 -471 0
11 12 -27 472 0
-27 -30 -472 473 0
-30 57 94 -473 0
14 -29 -38 474 0
-38 -75 -100 -474 0
-10 22 -23 475 0
-23 89 92 -475 0
-14 16 17 476 0
17 -19 -476 477 0
-19 21 -477 478 0
21 22 -478 479 0
22 -24 -479 480 0
-24 -29 89 -480 0
-9 75 -81 -93 0
-67 88 481 482 0
-67 88 481 -482 0
-67 88 -481 482 0
-67 88 -481 -482 0
-18 -27 39 483 0
39 50 -68 -483 0
-2 -52 60 484 0
60 61 -484 485 0
61 80 95 -485 0
13 -31 66 486 0
13 -31 66 -486 0
5 -45 50 487 0
50 67 -95 -487 0
-15 -23 51 88 0
-3 -42 48 488 0
48 70 -488 489 0
70 84 -99 -489 0
3 -14 25 490 0
25 -64 -71 -490 0
-37 -42 89 491 0
-37 -42 89 -491 0
6 -20 -23 492 0
-23 33 -492 493 0
33 59 91 -493 0
8 72 79 494 0
79 88 -494 495 0
88 90 95 -495 0
-26 -35 46 496 0
46 47 -496 497 0
47 54 -497 498 0
54 -64 -498 499 0
-64 -91 99 -499 0
-18 37 -42 500 0
-42 53 -500 501 0
53 -70 -501 502 0
-70 75 -95 -502 0
-12 53 57 -86 0
-26 -39 58 503 0
58 -70 95 -503 0
-41 60 93 504 0
-41 60 93 -504 0
38 48 62 505 0
62 -68 -505 506 0
-68 71 -506 507 0
71 89 -91 -507 0
-27 47 76 508 0
-27 47 76 -508 0
9 10 -15 509 0
-15 -29 -509 510 0
-29 37 -510 511 0
37 -39 -89 -511 0
51 93 512 513 0
51 93 512 -513 0
51 93 -512 513 0
51 93 -512 -513 0
1 -33 44 514 0
1 -33 44 -514 0
16 -31 -36 515 0
-36 -40 -515 516 0
-40 53 -516 517 0
53 58 -517 518 0
58 -71 -518 519 0
-71 75 -97 -519 0
18 -25 -93 520 0
18 -25 -93 -520 0
1 36 -46 521 0
-46 -57 -94 -521 0
35 37 55 522 0
55 91 -94 -522 0
21 -52 523 524 0
21 -52 523 -524 0
21 -52 -523 524 0
21 -52 -523 -524 0
10 60 63 525 0
63 -90 96 -525 0
-46 49 -59 526 0
-46 49 -59 -526 0
33 34 65 527 0
33 34 65 -527 0
32 38 53 528 0
53 68 -528 529 0
68 75 -80 -529 0
-15 -32 -92 530 0
-15 -32 -92 -530 0
-5 24 29 531 0
29 38 -531 532 0
38 -50 -532 533 0
-50 -91 94 -533 0
-1 12 14 534 0
14 -35 -534 535 0
-35 -37 -535 536 0
-37 46 -536 537 0
46 -52 -56 -537 0
-4 55 60 -75 0
13 40 -75 538 0
13 40 -75 -538 0
29 85 539 540 0
29 85 539 -540 0
29 85 -539 540 0
29 85 -539 -540 0
-52 -62 -85 541 0
-85 92 -98 -541 0
18 21 -28 542 0
-28 34 -542 543 0
34 86 -90 -543 0
37 51 52 -87 0
-3 -27 -31 544 0
-31 59 -544 545 0
59 60 -545 546 0
60 -67 -546 547 0
-67 -72 -78 -547 0
14 16 33 548 0
33 -46 -548 549 0
-46 53 -549 550 0
53 -54 -550 551 0
-54 -91 100 -551 0
-9 25 -36 552 0
-36 -68 -552 553 0
-68 -74 -87 -553 0
-8 53 60 554 0
60 -61 99 -554 0
3 -22 -42 555 0
-42 47 -555 556 0
47 -54 -556 557 0
-54 -69 -557 558 0
-69 -73 -78 -558 0
-3 5 45 559 0
45 -71 -559 560 0
-71 -85 -560 561 0
-85 -89 -93 -561 0
56 63 -74 562 0
56 63 -74 -562 0
33 -46 -73 563 0
-73 -76 89 -563 0
4 8 -14 564 0
-14 -38 -564 565 0
-38 85 -565 566 0
85 -90 -566 567 0
-90 97 98 -567 0
-16 42 -52 568 0
-52 72 -568 569 0
72 74 -569 570 0
74 87 88 -570 0
67 80 83 571 0
83 85 -99 -571 0
-15 -56 -79 -85 0
-4 -14 -25 572 0
-25 68 -572 573 0
68 69 -573 574 0
69 -75 96 -574 0
27 65 91 575 0
27 65 91 -575 0
27 -48 56 576 0
56 78 84 -576 0
-20 -39 52 577 0
52 -93 -100 -577 0
84 -97 578 579 0
84 -97 578 -579 0
84 -97 -578 579 0
84 -97 -578 -579 0
-7 -22 -25 580 0
-25 -46 -580 581 0
-46 -58 -581 582 0
-58 82 -582 583 0
82 83 -94 -583 0
24 56 -61 584 0
-61 68 -584 585 0
68 95 -96 -585 0
4 -33 36 586 0
36 -45 -586 587 0
-45 -48 -587 588 0
-48 -84 -588 589 0
-84 -89 -589 590 0
-89 95 96 -590 0
27 -42 46 591 0
27 -42 46 -591 0
-2 11 -12 592 0
-12 -15 -592 593 0
-15 -93 98 -593 0
-17 27 80 594 0
-17 27 80 -594 0
-3 -42 595 596 0
-3 -42 595 -596 0
-3 -42 -595 596 0
-3 -42 -595 -596 0
14 26 50 597 0
50 -51 -597 598 0
-51 68 -598 599 0
68 69 -599 600 0
69 80 -600 601 0
80 88 -96 -601 0
14 -20 -64 602 0
-64 68 -602 603 0
68 -76 -603 604 0
-76 79 -80 -604 0
-21 -25 -37 605 0
-37 -80 96 -605 0
15 99 606 607 0
15 99 606 -607 0
15 99 -606 607 0
15 99 -606 -607 0
61 -74 91 608 0
61 -74 91 -608 0
26 -57 -66 98 0
8 -70 -72 78 0
34 35 -44 609 0
-44 -67 -73 -609 0
4 28 45 610 0
45 55 -610 611 0
55 56 -611 612 0
56 -59 -612 613 0
-59 -69 -613 614 0
-69 84 -95 -614 0
-37 40 -46 49 0
4 -42 58 98 0
48 -55 64 615 0
64 -71 95 -615 0
-15 33 616 617 0
-15 33 616 -617 0
-15 33 -616 617 0
-15 33 -616 -617 0
24 -28 -50 618 0
-50 53 -618 619 0
53 59 -619 620 0
59 -66 -620 621 0
-66 -69 -621 622 0
-69 90 -98 -622 0
-2 5 -17 623 0
-17 30 -623 624 0
30 -35 -624 625 0
-35 -51 -625 626 0
-51 54 -626 627 0
54 -57 -87 -627 0
1 -23 -32 628 0
-32 43 -628 629 0
43 -44 -62 -629 0
-9 11 50 89 0
54 81 630 631 0
54 81 630 -631 0
54 81 -630 631 0
54 81 -630 -631 0
-18 -44 99 632 0
-18 -44 99 -632 0
-37 52 -89 633 0
-37 52 -89 -633 0
11 -17 -59 634 0
11 -17 -59 -634 0
4 -8 -27 635 0
-27 -36 -635 636 0
-36 56 -636 637 0
56 -70 -82 -637 0
-4 12 -50 638 0
-50 -64 -638 639 0
-64 70 77 -639 0
11 36 640 641 0
11 36 640 -641 0
11 36 -640 641 0
11 36 -640 -641 0
3 -98 642 643 0
3 -98 642 -643 0
3 -98 -642 643 0
3 -98 -642 -643 0
11 21 -49 644 0
-49 65 -644 645 0
65 80 -645 646 0
80 -86 -96 -646 0
28 -29 -51 75 0
-41 -52 -57 647 0
-41 -52 -57 -647 0
-35 -90 648 649 0
-35 -90 648 -649 0
-35 -90 -648 649 0
-35 -90 -648 -649 0
31 -44 -59 650 0
31 -44 -59 -650 0
5 7 -15 651 0
-15 -33 -651 652 0
-33 36 -652 653 0
36 -46 -653 654 0
-46 61 79 -654 0
6 -43 -55 655 0
-55 -61 -655 656 0
-61 84 89 -656 0
46 86 91 657 0
46 86 91 -657 0
4 -24 38 658 0
38 -40 -60 -658 0
46 -47 59 659 0
46 -47 59 -659 0
12 28 30 660 0
30 -52 -660 661 0
-52 55 -661 662 0
55 57 -78 -662 0
35 -40 68 663 0
68 79 -663 664 0
79 -81 -85 -664 0
-13 -52 56 665 0
56 -73 86 -665 0
-10 30 -40 -78 0
-29 -38 44 -98 0
1 -14 38 666 0
38 40 93 -666 0
48 61 -81 667 0
-81 -90 -97 -667 0
-23 -52 -63 668 0
-63 -80 -668 669 0
-80 83 -98 -669 0
2 -41 -73 670 0
2 -41 -73 -670 0
-10 -21 32 671 0
32 -74 -671 672 0
-74 94 -99 -672 0
-20 25 -38 673 0
-38 56 -673 674 0
56 -66 -674 675 0
-66 70 -675 676 0
70 73 -676 677 0
73 -75 -84 -677 0
3 59 64 71 0
3 4 65 678 0
3 4 65 -678 0
1 -14 -31 679 0
-31 -68 -679 680 0
-68 78 96 -680 0
47 55 58 681 0
58 65 -98 -681 0
10 29 -35 682 0
-35 -52 -682 683 0
-52 -54 -93 -683 0
38 -55 -60 684 0
-60 63 -684 685 0
63 77 -88 -685 0
3 -28 46 686 0
46 49 -686 687 0
49 55 -71 -687 0
-33 -62 -88 688 0
-33 -62 -88 -688 0
4 -18 53 689 0
53 -55 -689 690 0
-55 88 99 -690 0
1 41 62 63 0
2 43 58 691 0
58 70 92 -691 0
57 -60 692 693 0
57 -60 692 -693 0
57 -60 -692 693 0
57 -60 -692 -693 0
25 -42 -86 -90 0
-21 -25 -37 94 0
-16 18 -19 694 0
-19 29 -694 695 0
29 -33 -695 696 0
-33 -36 -696 697 0
-36 40 -697 698 0
40 -76 98 -698 0
39 63 66 699 0
66 69 -72 -699 0
-2 78 -89 -100 0
-6 11 15 700 0
15 -27 -700 701 0
-27 29 -701 702 0
29 33 -702 703 0
33 79 97 -703 0
-12 34 38 704 0
38 50 -67 -704 0
-51 -70 87 705 0
-51 -70 87 -705 0
-31 80 90 -99 0
15 76 80 -83 0
6 12 15 706 0
15 17 -706 707 0
17 -31 -47 -707 0
-9 -14 -27 708 0
-27 80 -95 -708 0
-12 -54 -59 709 0
-59 -66 -85 -709 0
-6 -29 91 710 0
91 96 -99 -710 0
18 80 -82 -85 0
37 61 -71 711 0
37 61 -71 -711 0
11 12 -27 712 0
-27 65 73 -712 0
9 25 713 714 0
9 25 713 -714 0
9 25 -713 714 0
9 25 -713 -714 0
79 -88 715 716 0
79 -88 715 -716 0
79 -88 -715 716 0
79 -88 -715 -716 0
-23 70 -82 717 0
-82 86 -717 718 0
86 88 -718 719 0
88 -91 99 -719 0
-45 80 86 720 0
-45 80 86 -720 0
-12 -16 -20 721 0
-20 47 -71 -721 0
-49 -59 70 71 0
1 -6 -23 722 0
-23 30 -722 723 0
30 35 -723 724 0
35 -40 -724 725 0
-40 50 -725 726 0
50 -71 84 -726 0
4 15 24 67 0
5 -8 14 727 0
14 -20 -727 728 0
-20 40 -728 729 0
40 87 -729 730 0
87 -89 -730 731 0
-89 -94 98 -731 0
41 58 -76 732 0
-76 -89 93 -732 0
-26 -46 -49 -65 0
-13 -43 -52 -72 0
31 42 -43 733 0
-43 -53 -733 734 0
-53 -56 -734 735 0
-56 59 -735 736 0
59 -67 -69 -736 0
-26 41 63 737 0
63 -86 -90 -737 0
24 -34 -42 738 0
-42 -47 -738 739 0
-47 -79 92 -739 0
-17 -70 -72 96 0
-9 22 740 741 0
-9 22 740 -741 0
-9 22 -740 741 0
-9 22 -740 -741 0
-25 29 -81 -84 0
21 26 85 742 0
21 26 85 -742 0
-33 -73 98 743 0
-33 -73 98 -743 0
-8 13 79 744 0
-8 13 79 -744 0
3 45 79 -93 0
-3 25 26 745 0
26 -38 -745 746 0
-38 -68 -746 747 0
-68 -80 97 -747 0
-8 22 25 748 0
25 27 -748 749 0
27 59 97 -749 0
11 31 34 750 0
34 35 -750 751 0
35 -67 -751 752 0
-67 69 -752 753 0
69 -89 93 -753 0
21 -91 754 755 0
21 -91 754 -755 0
21 -91 -754 755 0
21 -91 -754 -755 0
8 19 -65 756 0
-65 85 -99 -756 0
-24 27 -76 757 0
-24 27 -76 -757 0
40 -92 758 759 0
40 -92 758 -759 0
40 -92 -758 759 0
40 -92 -758 -759 0
16 18 20 760 0
20 55 -760 761 0
55 -64 -761 762 0
-64 67 -762 763 0
67 87 88 -763 0
14 19 -61 97 0
-5 -15 764 765 0
-5 -15 764 -765 0
-5 -15 -764 765 0
-5 -15 -764 -765 0
43 -52 -64 -92 0
-16 75 86 766 0
-16 75 86 -766 0
-25 34 44 767 0
44 -74 80 -767 0
-1 3 8 768 0
8 -14 -768 769 0
-14 70 -769 770 0
70 89 90 -770 0
11 -13 -46 771 0
-46 -66 -771 772 0
-66 77 -82 -772 0
-10 12 48 773 0
-10 12 48 -773 0
-18 -40 -50 774 0
-50 93 95 -774 0
-13 -36 -51 775 0
-13 -36 -51 -775 0
-8 30 69 776 0
-8 30 69 -776 0
-27 -29 -52 777 0
-52 54 -55 -777 0
33 71 -72 778 0
-72 -86 96 -778 0
-14 45 72 779 0
72 81 -779 780 0
81 -93 -97 -780 0
10 66 -69 781 0
10 66 -69 -781 0
56 67 78 81 0
35 -49 53 782 0
53 -64 -69 -782 0
18 -25 -34 783 0
-34 -51 -56 -783 0
3 18 74 784 0
74 75 -784 785 0
75 -91 -785 786 0
-91 95 97 -786 0
-9 20 21 787 0
21 -36 -787 788 0
-36 -39 66 -788 0
1 23 -38 789 0
-38 -47 -84 -789 0
-19 31 -32 98 0
-2 -23 25 790 0
25 26 -790 791 0
26 -28 -791 792 0
-28 30 -792 793 0
30 31 -793 794 0
31 -33 -794 795 0
-33 -38 98 -795 0
-18 84 -90 796 0
-18 84 -90 -796 0
-76 97 797 798 0
-76 97 797 -798 0
-76 97 -797 798 0
-76 97 -797 -798 0
4 -27 -36 799 0
-36 48 -799 800 0
48 59 -77 -800 0
-11 -61 69 801 0
69 70 89 -801 0
-4 22 -40 75 0
14 -54 59 76 0
-8 -24 -32 802 0
-32 60 97 -802 0
8 -12 -51 803 0
-51 57 -803 804 0
57 79 93 -804 0
12 -23 34 805 0
34 -73 -80 -805 0
-46 -51 98 806 0
-46 -51 98 -806 0
4 15 -29 807 0
-29 -32 -807 808 0
-32 42 -808 809 0
42 68 100 -809 0
8 17 81 810 0
81 88 -810 811 0
88 97 99 -811 0
-4 -35 -44 812 0
-44 55 -812 813 0
55 56 -813 814 0
56 63 -814 815 0
63 -73 -100 -815 0
-27 46 -51 816 0
-51 62 -816 817 0
62 -79 84 -817 0
4 -21 62 818 0
62 66 -95 -818 0
2 -35 -48 819 0
-48 67 -79 -819 0
-50 69 820 821 0
-50 69 820 -821 0
-50 69 -820 821 0
-50 69 -820 -821 0
47 57 71 822 0
71 -77 -822 823 0
-77 80 -823 824 0
80 98 -100 -824 0
-36 56 85 825 0
-36 56 85 -825 0
18 19 -24 826 0
-24 -38 -826 827 0
-38 46 -827 828 0
46 -48 -98 -828 0
2 30 829 830 0
2 30 829 -830 0
2 30 -829 830 0
2 30 -829 -830 0
-6 10 -42 53 0
-2 25 -40 831 0
-40 -45 -831 832 0
-45 -49 -832 833 0
-49 62 -833 834 0
62 67 -834 835 0
67 -80 84 -835 0
-3 27 -34 836 0
-3 27 -34 -836 0
-3 10 45 837 0
45 -55 -66 -837 0
44 46 64 100 0
5 30 -61 838 0
5 30 -61 -838 0
19 69 72 -99 0
-55 58 -68 839 0
-55 58 -68 -839 0
42 43 74 840 0
42 43 74 -840 0
-1 41 47 841 0
47 62 -841 842 0
62 77 -842 843 0
77 84 -89 -843 0
3 -24 -41 844 0
3 -24 -41 -844 0
-14 33 38 845 0
38 47 -845 846 0
47 -59 -100 -846 0
-10 21 23 847 0
23 -44 -847 848 0
-44 -46 -848 849 0
-46 55 -849 850 0
55 -61 -65 -850 0
-13 64 69 -84 0
22 49 -84 851 0
22 49 -84 -851 0
1 -7 38 94 0
-61 -71 -94 852 0
-61 -71 -94 -852 0
27 30 -37 853 0
-37 43 -853 854 0
43 95 -99 -854 0
46 60 61 -96 0
9 -12 -36 855 0
-36 -40 -855 856 0
-40 68 -856 857 0
68 69 -857 858 0
69 -76 -858 859 0
-76 -81 -87 -859 0
23 25 42 860 0
42 -55 -860 861 0
-55 62 -861 862 0
62 -63 -100 -862 0
8 -18 34 863 0
34 -45 -863 864 0
-45 -77 -864 865 0
-77 -83 -96 -865 0
-17 62 69 -70 0
-2 12 -31 866 0
-31 -51 -866 867 0
-51 56 -867 868 0
56 -63 -868 869 0
-63 -78 -869 870 0
-78 -82 -87 -870 0
-12 14 54 871 0
54 -80 -871 872 0
-80 -94 -98 -872 0
65 72 -83 873 0
65 72 -83 -873 0
6 7 42 874 0
42 -55 -874 875 0
-55 -82 -875 876 0
-82 -85 98 -876 0
13 17 -23 877 0
-23 -47 -877 878 0
-47 94 -99 -878 0
-8 -25 51 879 0
51 -61 -879 880 0
-61 81 -880 881 0
81 83 -881 882 0
83 96 97 -882 0
76 89 92 94 0
5 -24 -65 883 0
-65 -88 -94 -883 0
-13 -23 -34 884 0
-34 77 -884 885 0
77 78 -84 -885 0
36 74 100 886 0
36 74 100 -886 0
-2 -9 36 887 0
36 -57 -887 888 0
-57 65 -888 889 0
65 87 93 -889 0
-6 -29 -48 61 0
-3 93 890 891 0
-3 93 890 -891 0
-3 93 -890 891 0
-3 93 -890 -891 0
4 -5 -16 892 0
-16 -31 -892 893 0
-31 -34 -893 894 0
-34 -55 -894 895 0
-55 -67 -895 896 0
-67 91 92 -896 0
4 5 33 897 0
33 65 -897 898 0
65 -70 77 -898 0
13 -42 45 899 0
45 -54 -899 900 0
-54 -57 -900 901 0
-57 -93 -98 -901 0
-2 7 36 902 0
36 -51 55 -902 0
-11 20 -21 -24 0
-26 36 89 903 0
-26 36 89 -903 0
-5 -12 -51 904 0
-5 -12 -51 -904 0
23 35 59 905 0
59 -60 -905 906 0
-60 77 -906 907 0
77 78 -907 908 0
78 89 97 -908 0
5 23 -29 909 0
-29 -73 -909 910 0
-73 77 -910 911 0
77 -85 -911 912 0
-85 88 -89 -912 0
8 -30 -34 913 0
-34 -46 -89 -913 0
7 70 -83 100 0
35 -66 -75 914 0
35 -66 -75 -914 0
17 -79 -81 87 0
-4 43 44 915 0
44 -53 -915 916 0
-53 -76 -82 -916 0
13 37 54 917 0
54 64 -917 918 0
64 65 -918 919 0
65 -68 -919 920 0
-68 -78 93 -920 0
7 -46 49 921 0
49 -55 58 -921 0
4 13 -51 67 0
57 -64 73 -80 0
-7 -24 42 922 0
-7 -24 42 -922 0
33 -37 -59 923 0
-59 62 -923 924 0
62 68 -924 925 0
68 -75 -925 926 0
-75 -78 99 -926 0
-11 14 -26 927 0
-26 39 -927 928 0
39 -44 -928 929 0
-44 -60 -929 930 0
-60 63 -930 931 0
63 -66 -96 -931 0
10 -32 -41 932 0
-41 52 -932 933 0
52 -53 -71 -933 0
-18 20 59 98 0
8 63 90 934 0
8 63 90 -934 0
-27 -53 935 936 0
-27 -53 935 -936 0
-27 -53 -935 936 0
-27 -53 -935 -936 0
-46 61 -98 937 0
-46 61 -98 -937 0
20 -26 -68 938 0
20 -26 -68 -938 0
13 -17 -36 939 0
-36 -45 -939 940 0
-45 65 -940 941 0
65 -79 -91 -941 0
-13 21 -59 942 0
-59 -73 -942 943 0
-73 79 86 -943 0
-7 20 45 944 0
-7 20 45 -944 0
-5 12 945 946 0
-5 12 945 -946 0
-5 12 -945 946 0
-5 12 -945 -946 0
20 30 -58 947 0
-58 74 -947 948 0
74 89 -95 -948 0
37 -38 -60 84 0
-50 -61 -66 949 0
-50 -61 -66 -949 0
-44 -99 950 951 0
-44 -99 950 -951 0
-44 -99 -950 951 0
-44 -99 -950 -951 0
40 -53 -68 952 0
40 -53 -68 -952 0
14 16 -24 953 0
-24 -42 -953 954 0
-42 45 -954 955 0
45 -55 -955 956 0
-55 70 88 -956 0
15 -52 -64 957 0
-64 -70 -957 958 0
-70 93 98 -958 0
55 95 100 959 0
55 95 100 -959 0
13 -33 47 960 0
47 -49 -69 -960 0
55 -56 68 961 0
55 -56 68 -961 0
21 37 39 962 0
39 -61 -962 963 0
-61 64 -963 964 0
64 66 -87 -964 0
44 -49 77 965 0
77 88 -965 966 0
88 -90 -94 -966 0
-22 -61 65 967 0
65 -82 95 -967 0
-7 -19 39 968 0
39 -49 -87 -968 0
2 -38 -47 53 0
-6 10 -23 969 0
-23 47 49 -969 0
-7 57 70 970 0
70 -90 -99 -970 0
-32 -61 -72 971 0
-72 -89 92 -971 0
3 -8 11 972 0
11 -50 -82 -972 0
-19 -30 41 -83 0
-29 34 -47 973 0
-47 65 -973 974 0
65 -75 -974 975 0
-75 79 -975 976 0
79 82 -976 977 0
82 -84 -93 -977 0
12 68 73 80 0
5 12 13 74 0
-7 10 -23 978 0
-23 -40 -978 979 0
-40 -77 87 -979 0
-2 56 64 980 0
64 67 74 -980 0
19 38 -44 981 0
-44 -61 -63 -981 0
47 -64 -69 982 0
-69 72 -982 983 0
72 86 -97 -983 0
12 -37 55 984 0
55 58 -984 985 0
58 64 -80 -985 0
8 -42 -71 -97 0
13 -27 62 986 0
62 -64 97 -986 0
1 10 50 987 0
50 71 72 -987 0
11 52 67 79 0
66 -69 988 989 0
66 -69 988 -989 0
66 -69 -988 989 0
66 -69 -988 -989 0
3 34 -51 990 0
-51 -95 -99 -990 0
7 -30 -34 -46 0
-25 27 -28 991 0
-28 38 -991 992 0
38 -42 -992 993 0
-42 -45 -993 994 0
-45 49 -85 -994 0
-9 48 72 995 0
72 75 -995 996 0
75 78 -81 -996 0
6 -11 87 -98 0
-15 20 24 997 0
24 -36 -997 998 0
-36 38 -998 999 0
38 42 88 -999 0
-21 43 47 1000 0
47 59 -76 -1000 0
-8 -60 -79 96 0
-40 89 99 1001 0
-40 89 99 -1001 0
24 85 89 -92 0
-4 15 21 1002 0
21 24 -1002 1003 0
24 26 -1003 1004 0
26 -40 -56 -1004 0
-18 -23 -36 89 0
5 -8 -21 1005 0
-21 -63 -1005 1006 0
-63 -68 -1006 1007 0
-68 -75 -94 -1007 0
-15 -38 100 1008 0
-15 -38 100 -1008 0
27 89 -91 -94 0
46 70 -80 1009 0
46 70 -80 -1009 0
20 21 -36 1010 0
-36 74 82 -1010 0
18 34 1011 1012 0
18 34 1011 -1012 0
18 34 -1011 1012 0
18 34 -1011 -1012 0
8 88 -97 1013 0
8 88 -97 -1013 0
-32 79 -91 1014 0
-91 95 -1014 1015 0
95 97 -100 -1015 0
-54 89 95 1016 0
-54 89 95 -1016 0
-21 -25 -29 1017 0
-29 56 -80 -1017 0
-58 -68 79 80 0
10 -15 -32 1018 0
-32 39 -1018 1019 0
39 44 -1019 1020 0
44 -49 -1020 1021 0
-49 59 -1021 1022 0
59 -80 93 -1022 0
-3 7 13 1023 0
13 24 -1023 1024 0
24 33 76 -1024 0
2 14 -17 1025 0
-17 23 -1025 1026 0
23 -29 -1026 1027 0
-29 49 -1027 1028 0
49 96 -98 -1028 0
50 67 -85 -98 0
-35 -55 -58 -74 0
-22 -52 -61 -81 0
40 51 -52 1029 0
-52 -62 -1029 1030 0
-62 -65 -1030 1031 0
-65 68 -1031 1032 0
68 -76 -78 -1032 0
1 -35 50 1033 0
50 72 -1033 1034 0
72 -95 -99 -1034 0
5 33 -43 1035 0
-43 -51 -1035 1036 0
-51 -56 -88 -1036 0
-26 -79 -81 1037 0
-26 -79 -81 -1037 0
-18 31 1038 1039 0
-18 31 1038 -1039 0
-18 31 -1038 1039 0
-18 31 -1038 -1039 0
-34 38 -90 -93 0
7 30 35 94 0
-42 -82 1040 1041 0
-42 -82 1040 -1041 0
-42 -82 -1040 1041 0
-42 -82 -1040 -1041 0
-2 -17 22 88 0
12 54 88 1042 0
12 54 88 -1042 0
6 -12 34 1043 0
34 35 -1043 1044 0
35 -47 -1044 1045 0
-47 -77 -89 -1045 0
2 -17 31 1046 0
31 34 -1046 1047 0
34 36 68 -1047 0
20 40 43 1048 0
43 44 -1048 1049 0
44 -76 -1049 1050 0
-76 78 -98 -1050 0
-8 30 -100 1051 0
-8 30 -100 -1051 0
17 28 -74 94 0
-1 -33 36 -85 0
6 25 27 1052 0
27 29 -1052 1053 0
29 64 -1053 1054 0
64 -73 -1054 1055 0
-73 76 -1055 1056 0
76 96 97 -1056 0
23 28 -70 1057 0
23 28 -70 -1057 0
-1 -14 -24 1058 0
-1 -14 -24 -1058 0
52 -61 -73 1059 0
52 -61 -73 -1059 0
-25 84 95 1060 0
-25 84 95 -1060 0
-34 43 53 1061 0
53 -83 89 -1061 0
-10 12 17 1062 0
17 -23 -1062 1063 0
-23 79 -1063 1064 0
79 98 99 -1064 0
20 -22 -55 1065 0
-55 -75 -1065 1066 0
-75 86 -91 -1066 0
2 4 -19 1067 0
-19 21 57 -1067 0
-27 -49 -59 1068 0
-27 -49 -59 -1068 0
-22 -45 -60 1069 0
-22 -45 -60 -1069 0
-4 -17 39 78 0
5 -36 -38 1070 0
-38 -61 -1070 1071 0
-61 63 -64 -1071 0
-2 -6 42 1072 0
42 80 -1072 1073 0
80 -81 -95 -1073 0
-23 54 81 90 0
19 75 -78 1074 0
19 75 -78 -1074 0
65 76 87 90 0
44 -58 62 1075 0
62 -73 -78 -1075 0
4 6 27 1076 0
27 -34 -1076 1077 0
-34 -43 -1077 1078 0
-43 -60 -65 -1078 0
12 27 83 1079 0
83 84 -100 -1079 0
-18 29 30 1080 0
30 -45 -1080 1081 0
-45 -48 75 -1081 0
7 10 32 1082 0
32 -47 -1082 1083 0
-47 -56 -93 -1083 0
7 -28 40 -41 0
-11 -32 34 1084 0
34 35 -1084 1085 0
35 -37 -1085 1086 0
-37 39 -1086 1087 0
39 40 -1087 1088 0
40 -42 -47 -1088 0
6 -27 93 -99 0
13 -36 -45 1089 0
-45 57 -1089 1090 0
57 68 -86 -1090 0
-20 -70 78 1091 0
78 79 98 -1091 0
-13 31 -49 84 0
6 23 -63 1092 0
-63 68 85 -1092 0
2 -17 -33 1093 0
-33 -41 69 -1093 0
17 -21 -60 1094 0
-60 66 88 -1094 0
7 21 -32 1095 0
-32 43 -1095 1096 0
43 -82 -89 -1096 0
9 -55 -60 1097 0
9 -55 -60 -1097 0
6 8 13 1098 0
13 24 -1098 1099 0
24 -38 -1099 1100 0
-38 -41 -1100 1101 0
-41 51 77 -1101 0
-9 17 26 1102 0
26 90 97 -1102 0
-13 -44 -53 1103 0
-53 64 -1103 1104 0
64 65 -1104 1105 0
65 72 -82 -1105 0
-4 -36 55 1106 0
55 -60 -1106 1107 0
-60 71 -1107 1108 0
71 -88 93 -1108 0
13 -30 71 75 0
11 -44 -57 1109 0
-57 76 -88 -1109 0
7 -9 -59 78 0
56 66 80 1110 0
80 -86 89 -1110 0
-7 -45 65 94 0
27 28 -33 1111 0
-33 -47 -1111 1112 0
-47 55 -57 -1112 0
11 39 1113 1114 0
11 39 1113 -1114 0
11 39 -1113 1114 0
11 39 -1113 -1114 0
-15 19 -51 62 0
-11 34 -49 1115 0
-49 -54 -1115 1116 0
-54 -58 -1116 1117 0
-58 71 -1117 1118 0
71 76 -1118 1119 0
76 -89 93 -1119 0
-12 36 -43 1120 0
-12 36 -43 -1120 0
9 -12 19 1121 0
19 54 -1121 1122 0
54 -64 -75 -1122 0
53 55 73 1123 0
53 55 73 -1123 0
-8 14 39 -70 0
28 78 81 1124 0
28 78 81 -1124 0
-64 67 -77 1125 0
-64 67 -77 -1125 0
51 52 83 1126 0
51 52 83 -1126 0
-10 50 56 1127 0
56 71 -1127 1128 0
71 86 -1128 1129 0
86 93 -98 -1129 0
-9 12 -33 -50 0
-23 42 47 1130 0
47 56 -68 -1130 0
-19 30 32 1131 0
32 -53 -1131 1132 0
-53 -55 -1132 1133 0
-55 64 -1133 1134 0
64 -70 -74 -1134 0
-22 73 78 -93 0
3 31 58 -93 0
-3 10 -16 47 0
4 -8 -70 -80 0
-5 36 39 1135 0
39 -46 52 -1135 0
55 69 70 1136 0
55 69 70 -1136 0
-9 18 -21 1137 0
-21 -45 -1137 1138 0
-45 -49 -1138 1139 0
-49 77 -1139 1140 0
77 78 -1140 1141 0
78 -85 -1141 1142 0
-85 -90 -96 -1142 0
-5 32 34 1143 0
34 51 -1143 1144 0
51 -64 -1144 1145 0
-64 71 -72 -1145 0
17 -27 43 1146 0
43 -54 -1146 1147 0
-54 -86 -92 -1147 0
-26 71 78 -79 0
-3 -7 -11 1148 0
-11 21 -1148 1149 0
21 -40 -1149 1150 0
-40 -60 -1150 1151 0
-60 65 -1151 1152 0
65 -72 -1152 1153 0
-72 -87 -1153 1154 0
-87 -91 -96 -1154 0
-21 23 63 -89 0
7 74 81 -92 0
3 -8 15 1155 0
15 16 -1155 1156 0
16 51 -1156 1157 0
51 -64 -1157 1158 0
-64 -91 -94 -1158 0
5 6 22 1159 0
22 26 -1159 1160 0
26 -32 -56 -1160 0
1 3 -17 1161 0
-17 -34 -1161 1162 0
-34 60 -1162 1163 0
60 -70 -1163 1164 0
-70 90 92 -1164 0
-3 85 98 1165 0
-3 85 98 -1165 0
14 -33 -74 -97 0
9 -22 -32 1166 0
-32 -43 -1166 1167 0
-43 86 -1167 1168 0
86 87 -93 -1168 0
2 45 83 1169 0
2 45 83 -1169 0
-11 -18 45 1170 0
45 -66 -1170 1171 0
-66 74 96 -1171 0
2 -15 -38 1172 0
-38 -57 70 -1172 0
1 -12 1173 1174 0
1 -12 1173 -1174 0
1 -12 -1173 1174 0
1 -12 -1173 -1174 0
13 -14 -25 1175 0
-25 -40 -1175 1176 0
-40 -43 -1176 1177 0
-43 -64 -1177 1178 0
-64 -76 100 -1178 0
-2 -7 13 1179 0
13 14 -1179 1180 0
14 42 -1180 1181 0
42 74 -1181 1182 0
74 -79 86 -1182 0
22 -51 54 1183 0
54 -63 -66 -1183 0
-11 16 45 1184 0
45 -60 64 -1184 0
-20 29 -30 -33 0
-35 45 98 1185 0
-35 45 98 -1185 0
6 -14 -21 -60 0
32 44 68 1186 0
68 -69 -1186 1187 0
-69 86 -1187 1188 0
86 87 98 -1188 0
14 32 -38 1189 0
-38 -82 -1189 1190 0
-82 86 -1190 1191 0
86 -94 -1191 1192 0
-94 97 -98 -1192 0
17 -39 -43 1193 0
-43 -55 -98 -1193 0
9 33 1194 1195 0
9 33 1194 -1195 0
9 33 -1194 1195 0
9 33 -1194 -1195 0
16 79 -92 1196 0
16 79 -92 -1196 0
44 -75 -84 1197 0
44 -75 -84 -1197 0
26 -88 -90 96 0
2 -13 52 1198 0
52 53 -1198 1199 0
53 -62 -1199 1200 0
-62 -85 -91 -1200 0
22 46 63 1201 0
63 73 -1201 1202 0
73 74 -1202 1203 0
74 -77 -87 -1203 0
16 -55 58 1204 0
58 -64 67 -1204 0
13 22 -60 76 0
66 -73 82 -89 0
8 -16 -33 51 0
-5 42 -46 1205 0
-46 -68 -1205 1206 0
-68 71 -1206 1207 0
71 77 -1207 1208 0
77 -84 -87 -1208 0
-20 23 -35 1209 0
-35 48 -1209 1210 0
48 -53 -1210 1211 0
-53 -69 -1211 1212 0
-69 72 -75 -1212 0
7 19 -41 1213 0
-41 -50 -1213 1214 0
-50 61 -1214 1215 0
61 -62 -80 -1215 0
-27 29 68 1216 0
-27 29 68 -1216 0
17 72 99 1217 0
17 72 99 -1217 0
-7 -36 -62 1218 0
-7 -36 -62 -1218 0
-55 70 1219 1220 0
-55 70 1219 -1220 0
-55 70 -1219 1220 0
-55 70 -1219 -1220 0
29 -35 -77 1221 0
29 -35 -77 -1221 0
22 -26 -45 1222 0
-45 -54 -1222 1223 0
-54 74 -1223 1224 0
74 -88 -100 -1224 0
-22 30 -68 1225 0
-68 -82 -1225 1226 0
-82 88 95 -1226 0
-16 29 54 1227 0
-16 29 54 -1227 0
-4 -14 21 1228 0
-4 -14 21 -1228 0
29 39 -67 1229 0
-67 83 98 -1229 0
46 -47 -69 93 0
-8 -59 -70 -75 0
49 -62 -77 1230 0
49 -62 -77 -1230 0
2 7 23 1231 0
23 25 -1231 1232 0
25 -33 -1232 1233 0
-33 -51 -1233 1234 0
-51 54 -1234 1235 0
54 -64 -1235 1236 0
-64 79 97 -1236 0
4 9 24 1237 0
24 -61 -1237 1238 0
-61 -73 -79 -1238 0
22 -42 56 1239 0
56 -58 -78 -1239 0
64 -65 77 1240 0
64 -65 77 -1240 0
-3 30 46 1241 0
46 48 -1241 1242 0
48 -70 -1242 1243 0
-70 73 -1243 1244 0
73 75 -96 -1244 0
4 53 -58 1245 0
-58 86 -1245 1246 0
86 97 -99 -1246 0
-31 -70 74 -91 0
-16 -28 48 1247 0
48 -58 -96 -1247 0
11 -47 -56 62 0
-8 -15 19 1248 0
19 -32 -1248 1249 0
-32 56 58 -1249 0
1 -16 66 1250 0
66 79 -99 -1250 0
-41 -70 -81 -98 0
12 -17 20 1251 0
20 -59 -91 -1251 0
-2 -28 -39 1252 0
-39 50 -92 -1252 0
-38 43 -56 1253 0
-56 74 -1253 1254 0
74 -84 -1254 1255 0
-84 88 -1255 1256 0
88 91 -93 -1256 0
21 77 82 89 0
14 21 22 83 0
-16 19 -32 1257 0
-32 -49 -1257 1258 0
-49 -86 96 -1258 0
-11 65 73 1259 0
73 76 83 -1259 0
-6 28 47 1260 0
47 -53 -1260 1261 0
-53 -70 -72 -1261 0
56 -73 -78 1262 0
-78 81 95 -1262 0
-6 21 -46 1263 0
-46 64 -1263 1264 0
64 67 -1264 1265 0
67 73 -89 -1265 0
6 17 -51 -80 0
22 -36 71 -73 0
10 19 59 1266 0
59 80 81 -1266 0
20 61 76 88 0
-9 75 -78 1267 0
-9 75 -78 -1267 0
-4 -8 1268 1269 0
-4 -8 1268 -1269 0
-4 -8 -1268 1269 0
-4 -8 -1268 -1269 0
12 43 -60 1270 0
12 43 -60 -1270 0
16 -39 -43 -55 0
-34 36 -37 1271 0
-37 47 -1271 1272 0
47 -51 -1272 1273 0
-51 -54 -1273 1274 0
-54 58 -94 -1274 0
-7 -18 57 1275 0
57 81 -1275 1276 0
81 84 -1276 1277 0
84 87 -90 -1277 0
15 -20 96 1278 0
15 -20 96 -1278 0
-24 29 33 1279 0
33 -45 -1279 1280 0
-45 47 -1280 1281 0
47 51 97 -1281 0
5 -30 52 1282 0
52 56 -1282 1283 0
56 68 -85 -1283 0
8 -17 -69 -88 0
-1 -49 98 1284 0
-1 -49 98 -1284 0
33 94 98 1285 0
33 94 98 -1285 0
-13 24 30 1286 0
30 33 -1286 1287 0
33 35 -1287 1288 0
35 -49 -65 -1288 0
-3 -27 -32 1289 0
-32 -45 98 -1289 0
9 14 -17 1290 0
-17 -30 -1290 1291 0
-30 -72 -1291 1292 0
-72 -77 -84 -1292 0
-3 -24 -47 1293 0
-3 -24 -47 -1293 0
36 98 -100 1294 0
36 98 -100 -1294 0
55 79 -89 1295 0
55 79 -89 -1295 0
29 30 -45 1296 0
-45 83 91 -1296 0
-6 27 43 1297 0
-6 27 43 -1297 0
4 6 -9 1298 0
-9 17 97 -1298 0
4 -41 88 -100 0
-63 98 1299 1300 0
-63 98 1299 -1300 0
-63 98 -1299 1300 0
-63 98 -1299 -1300 0
-30 -34 -38 1301 0
-38 65 -89 -1301 0
2 -67 -77 1302 0
-77 88 89 -1302 0
19 -24 -41 1303 0
-41 48 -1303 1304 0
48 53 -1304 1305 0
53 -58 -1305 1306 0
-58 68 -89 -1306 0
5 -7 -12 1307 0
-12 16 -1307 1308 0
16 22 -1308 1309 0
22 33 -1309 1310 0
33 42 85 -1310 0
-7 11 23 1311 0
23 -26 -1311 1312 0
-26 32 -1312 1313 0
32 -38 58 -1313 0
59 76 -94 1314 0
59 76 -94 -1314 0
-44 -64 -67 -83 0
-31 -61 -70 -90 0
-4 -8 49 1315 0
49 60 -1315 1316 0
60 -61 -1316 1317 0
-61 -71 -1317 1318 0
-71 -74 -1318 1319 0
-74 77 -1319 1320 0
77 -85 -87 -1320 0
10 -44 59 81 0
14 42 -52 1321 0
-52 -60 -1321 1322 0
-60 -65 -97 -1322 0
-35 -88 -90 1323 0
-35 -88 -90 -1323 0
-2 -27 40 1324 0
-2 -27 40 -1324 0
3 -43 47 -99 0
16 39 44 1325 0
16 39 44 -1325 0
-51 -91 1326 1327 0
-51 -91 1326 -1327 0
-51 -91 -1326 1327 0
-51 -91 -1326 -1327 0
-11 -26 31 97 0
21 63 97 1328 0
21 63 97 -1328 0
15 -21 43 1329 0
43 44 -1329 1330 0
44 -56 -1330 1331 0
-56 -86 -98 -1331 0
-7 11 -26 1332 0
-26 40 -1332 1333 0
40 43 -1333 1334 0
43 45 77 -1334 0
-9 29 49 1335 0
49 52 -1335 1336 0
52 53 -1336 1337 0
53 -85 87 -1337 0
3 -17 39 1338 0
3 -17 39 -1338 0
26 37 -83 1339 0
26 37 -83 -1339 0
-10 -42 45 -94 0
5 6 58 1340 0
5 6 58 -1340 0
15 34 36 1341 0
36 38 -1341 1342 0
38 73 -1342 1343 0
73 -82 85 -1343 0
32 37 -79 1344 0
32 37 -79 -1344 0
-10 -23 -33 1345 0
-10 -23 -33 -1345 0
4 61 -70 -82 0
-34 93 1346 1347 0
-34 93 1346 -1347 0
-34 93 -1346 1347 0
-34 93 -1346 -1347 0
7 8 -43 1348 0
-43 52 -1348 1349 0
52 62 -1349 1350 0
62 -92 98 -1350 0
-19 21 26 1351 0
26 -32 88 -1351 0
29 -31 -64 1352 0
-64 -84 -1352 1353 0
-84 95 -100 -1353 0
11 13 -28 1354 0
-28 30 66 -1354 0
-36 -58 -68 1355 0
-36 -58 -68 -1355 0
-31 -54 -69 1356 0
-31 -54 -69 -1356 0
-13 -26 48 87 0
-4 14 -45 1357 0
-45 -47 -1357 1358 0
-47 -70 -1358 1359 0
-70 72 -73 -1359 0
-11 -15 51 1360 0
51 89 -90 -1360 0
-32 63 90 99 0
28 84 -87 1361 0
28 84 -87 -1361 0
74 85 96 99 0
53 -67 71 1362 0
71 -82 -87 -1362 0
-9 13 15 1363 0
15 36 -1363 1364 0
36 -43 -1364 1365 0
-43 -52 -1365 1366 0
-52 -69 -74 -1366 0
21 36 92 93 0
-2 -27 38 1367 0
38 39 -1367 1368 0
39 -54 -1368 1369 0
-54 -57 84 -1369 0
16 19 41 1370 0
41 -56 -65 -1370 0
16 -37 49 -50 0
2 -8 -20 1371 0
-20 -41 -1371 1372 0
-41 43 -1372 1373 0
43 44 -1373 1374 0
44 -46 -1374 1375 0
-46 48 -1375 1376 0
48 49 -1376 1377 0
49 -51 -56 -1377 0
15 -36 1378 1379 0
15 -36 1378 -1379 0
15 -36 -1378 1379 0
15 -36 -1378 -1379 0
7 22 -45 1380 0
-45 -54 -1380 1381 0
-54 66 -1381 1382 0
66 77 -95 -1382 0
-29 -79 87 88 0
-22 40 -58 93 0
15 32 -72 1383 0
-72 77 94 -1383 0
11 -26 -42 1384 0
-42 -50 78 -1384 0
26 -30 -69 1385 0
-69 75 97 -1385 0
16 30 -41 1386 0
-41 52 -1386 1387 0
52 -91 -98 -1387 0
18 -64 -69 1388 0
18 -64 -69 -1388 0
6 15 17 1389 0
17 22 -1389 1390 0
22 33 -1390 1391 0
33 -47 -1391 1392 0
-47 -50 -1392 1393 0
-50 60 86 -1393 0
-18 26 35 99 0
2 -22 -53 1394 0
-53 -62 -1394 1395 0
-62 73 -1395 1396 0
73 74 -1396 1397 0
74 81 -91 -1397 0
-13 -45 64 1398 0
64 -69 -1398 1399 0
-69 80 -97 -1399 0
22 -39 80 84 0
20 -53 -66 1400 0
-66 85 -97 -1400 0
16 -18 -68 87 0
3 65 75 1401 0
75 89 -1401 1402 0
89 -95 98 -1402 0
-16 -54 74 1403 0
-16 -54 74 -1403 0
36 37 -42 1404 0
-42 -56 -1404 1405 0
-56 64 -66 -1405 0
20 48 1406 1407 0
20 48 1406 -1407 0
20 48 -1406 1407 0
20 48 -1406 -1407 0
2 -24 28 1408 0
28 -60 71 -1408 0
-20 43 -58 1409 0
-58 -63 -1409 1410 0
-63 -67 -1410 1411 0
-67 80 -1411 1412 0
80 85 -98 -1412 0
-21 45 -52 1413 0
-21 45 -52 -1413 0
18 -21 28 1414 0
28 63 -1414 1415 0
63 -73 -84 -1415 0
62 64 82 1416 0
62 64 82 -1416 0
-17 23 48 -79 0
37 87 90 1417 0
37 87 90 -1417 0
-73 76 -86 1418 0
-73 76 -86 -1418 0
2 -7 60 1419 0
60 61 92 -1419 0
-19 59 65 1420 0
65 80 95 -1420 0
-18 21 -42 -59 0
-32 51 56 1421 0
56 65 -77 -1421 0
-2 -28 39 1422 0
39 41 -1422 1423 0
41 -62 -1423 1424 0
-62 -64 -1424 1425 0
-64 73 -1425 1426 0
73 -79 -83 -1426 0
-2 -31 82 87 0
12 40 67 1427 0
12 40 67 -1427 0
-12 19 -25 56 0
13 -17 -79 -89 0
-14 45 48 1428 0
48 -55 61 -1428 0
